modeles/10_4.lp
minimize
obj: 1 x_1_ + 1 x_2_ + 1 x_3_ + 1 x_4_ + 1 x_5_ + 1 x_6_ + 1 x_7_ + 1 x_8_ + 1 x_9_ + 1 x_10_
subject to
c1_1: 1 t_1,1_ - 1 y_1,1_ <= 0
c2_1: 1 t_1,2_ - 1 y_1,1_ - 1 y_1,2_ <= 0
c3_1: 1 t_1,3_ - 1 y_1,2_ - 1 y_1,3_ <= 0
c4_1: 1 t_1,4_ - 1 y_1,3_ - 1 y_1,4_ <= 0
c5_1: 1 t_1,5_ - 1 y_1,4_ <= 0
c6_1: 1 t_2,1_ - 1 y_2,1_ <= 0
c7_1: 1 t_2,2_ - 1 y_2,1_ - 1 y_2,2_ <= 0
c8_1: 1 t_2,3_ - 1 y_2,2_ - 1 y_2,3_ <= 0
c9_1: 1 t_2,4_ - 1 y_2,3_ - 1 y_2,4_ <= 0
c10_1: 1 t_2,5_ - 1 y_2,4_ <= 0
c11_1: 1 t_3,1_ - 1 y_3,1_ <= 0
c12_1: 1 t_3,2_ - 1 y_3,1_ - 1 y_3,2_ <= 0
c13_1: 1 t_3,3_ - 1 y_3,2_ - 1 y_3,3_ <= 0
c14_1: 1 t_3,4_ - 1 y_3,3_ - 1 y_3,4_ <= 0
c15_1: 1 t_3,5_ - 1 y_3,4_ <= 0
c16_1: 1 t_4,1_ - 1 y_4,1_ <= 0
c17_1: 1 t_4,2_ - 1 y_4,1_ - 1 y_4,2_ <= 0
c18_1: 1 t_4,3_ - 1 y_4,2_ - 1 y_4,3_ <= 0
c19_1: 1 t_4,4_ - 1 y_4,3_ - 1 y_4,4_ <= 0
c20_1: 1 t_4,5_ - 1 y_4,4_ <= 0
c21_1: 1 t_5,1_ - 1 y_5,1_ <= 0
c22_1: 1 t_5,2_ - 1 y_5,1_ - 1 y_5,2_ <= 0
c23_1: 1 t_5,3_ - 1 y_5,2_ - 1 y_5,3_ <= 0
c24_1: 1 t_5,4_ - 1 y_5,3_ - 1 y_5,4_ <= 0
c25_1: 1 t_5,5_ - 1 y_5,4_ <= 0
c26_1: 1 t_6,1_ - 1 y_6,1_ <= 0
c27_1: 1 t_6,2_ - 1 y_6,1_ - 1 y_6,2_ <= 0
c28_1: 1 t_6,3_ - 1 y_6,2_ - 1 y_6,3_ <= 0
c29_1: 1 t_6,4_ - 1 y_6,3_ - 1 y_6,4_ <= 0
c30_1: 1 t_6,5_ - 1 y_6,4_ <= 0
c31: 1 t_7,1_ - 1 y_7,1_ <= 0
c32: 1 t_7,2_ - 1 y_7,1_ - 1 y_7,2_ <= 0
c33: 1 t_7,3_ - 1 y_7,2_ - 1 y_7,3_ <= 0
c34: 1 t_7,4_ - 1 y_7,3_ - 1 y_7,4_ <= 0
c35: 1 t_7,5_ - 1 y_7,4_ <= 0
c36: 1 t_8,1_ - 1 y_8,1_ <= 0
c37: 1 t_8,2_ - 1 y_8,1_ - 1 y_8,2_ <= 0
c38: 1 t_8,3_ - 1 y_8,2_ - 1 y_8,3_ <= 0
c39: 1 t_8,4_ - 1 y_8,3_ - 1 y_8,4_ <= 0
c40: 1 t_8,5_ - 1 y_8,4_ <= 0
c41: 1 t_9,1_ - 1 y_9,1_ <= 0
c42: 1 t_9,2_ - 1 y_9,1_ - 1 y_9,2_ <= 0
c43: 1 t_9,3_ - 1 y_9,2_ - 1 y_9,3_ <= 0
c44: 1 t_9,4_ - 1 y_9,3_ - 1 y_9,4_ <= 0
c45: 1 t_9,5_ - 1 y_9,4_ <= 0
c46: 1 t_10,1_ - 1 y_10,1_ <= 0
c47: 1 t_10,2_ - 1 y_10,1_ - 1 y_10,2_ <= 0
c48: 1 t_10,3_ - 1 y_10,2_ - 1 y_10,3_ <= 0
c49: 1 t_10,4_ - 1 y_10,3_ - 1 y_10,4_ <= 0
c50: 1 t_10,5_ - 1 y_10,4_ <= 0
c51: 4 t_1,1_ + 4 t_2,1_ + 4 t_3,1_ + 4 t_4,1_ + 4 t_5,1_ + 4 t_6,1_ + 4 t_7,1_ + 4 t_8,1_ + 4 t_9,1_ + 4 t_10,1_ + 1 t_1,2_ + 1 t_2,2_ + 1 t_3,2_ + 1 t_4,2_ + 1 t_5,2_ + 1 t_6,2_ + 1 t_7,2_ + 1 t_8,2_ + 1 t_9,2_ + 1 t_10,2_ + 1 t_1,4_ + 1 t_2,4_ + 1 t_3,4_ + 1 t_4,4_ + 1 t_5,4_ + 1 t_6,4_ + 1 t_7,4_ + 1 t_8,4_ + 1 t_9,4_ + 1 t_10,4_ + 4 t_1,5_ + 4 t_2,5_ + 4 t_3,5_ + 4 t_4,5_ + 4 t_5,5_ + 4 t_6,5_ + 4 t_7,5_ + 4 t_8,5_ + 4 t_9,5_ + 4 t_10,5_ <= 1
c1: 1 y_1,1_ + 1 y_1,2_ + 1 y_1,3_ + 1 y_1,4_ = 1
c2: 1 t_1,1_ + 1 t_1,2_ + 1 t_1,3_ + 1 t_1,4_ + 1 t_1,5_ = 1
c3: -2 t_1,1_ - 1 t_1,2_ + 1 t_1,4_ + 2 t_1,5_ - 1 x_1_ = 0
c4: 1 y_2,1_ + 1 y_2,2_ + 1 y_2,3_ + 1 y_2,4_ = 1
c5: 1 t_2,1_ + 1 t_2,2_ + 1 t_2,3_ + 1 t_2,4_ + 1 t_2,5_ = 1
c6: -2 t_2,1_ - 1 t_2,2_ + 1 t_2,4_ + 2 t_2,5_ - 1 x_2_ = 0
c7: 1 y_3,1_ + 1 y_3,2_ + 1 y_3,3_ + 1 y_3,4_ = 1
c8: 1 t_3,1_ + 1 t_3,2_ + 1 t_3,3_ + 1 t_3,4_ + 1 t_3,5_ = 1
c9: -2 t_3,1_ - 1 t_3,2_ + 1 t_3,4_ + 2 t_3,5_ - 1 x_3_ = 0
c10: 1 y_4,1_ + 1 y_4,2_ + 1 y_4,3_ + 1 y_4,4_ = 1
c11: 1 t_4,1_ + 1 t_4,2_ + 1 t_4,3_ + 1 t_4,4_ + 1 t_4,5_ = 1
c12: -2 t_4,1_ - 1 t_4,2_ + 1 t_4,4_ + 2 t_4,5_ - 1 x_4_ = 0
c13: 1 y_5,1_ + 1 y_5,2_ + 1 y_5,3_ + 1 y_5,4_ = 1
c14: 1 t_5,1_ + 1 t_5,2_ + 1 t_5,3_ + 1 t_5,4_ + 1 t_5,5_ = 1
c15: -2 t_5,1_ - 1 t_5,2_ + 1 t_5,4_ + 2 t_5,5_ - 1 x_5_ = 0
c16: 1 y_6,1_ + 1 y_6,2_ + 1 y_6,3_ + 1 y_6,4_ = 1
c17: 1 t_6,1_ + 1 t_6,2_ + 1 t_6,3_ + 1 t_6,4_ + 1 t_6,5_ = 1
c18: -2 t_6,1_ - 1 t_6,2_ + 1 t_6,4_ + 2 t_6,5_ - 1 x_6_ = 0
c19: 1 y_7,1_ + 1 y_7,2_ + 1 y_7,3_ + 1 y_7,4_ = 1
c20: 1 t_7,1_ + 1 t_7,2_ + 1 t_7,3_ + 1 t_7,4_ + 1 t_7,5_ = 1
c21: -2 t_7,1_ - 1 t_7,2_ + 1 t_7,4_ + 2 t_7,5_ - 1 x_7_ = 0
c22: 1 y_8,1_ + 1 y_8,2_ + 1 y_8,3_ + 1 y_8,4_ = 1
c23: 1 t_8,1_ + 1 t_8,2_ + 1 t_8,3_ + 1 t_8,4_ + 1 t_8,5_ = 1
c24: -2 t_8,1_ - 1 t_8,2_ + 1 t_8,4_ + 2 t_8,5_ - 1 x_8_ = 0
c25: 1 y_9,1_ + 1 y_9,2_ + 1 y_9,3_ + 1 y_9,4_ = 1
c26: 1 t_9,1_ + 1 t_9,2_ + 1 t_9,3_ + 1 t_9,4_ + 1 t_9,5_ = 1
c27: -2 t_9,1_ - 1 t_9,2_ + 1 t_9,4_ + 2 t_9,5_ - 1 x_9_ = 0
c28: 1 y_10,1_ + 1 y_10,2_ + 1 y_10,3_ + 1 y_10,4_ = 1
c29: 1 t_10,1_ + 1 t_10,2_ + 1 t_10,3_ + 1 t_10,4_ + 1 t_10,5_ = 1
c30: -2 t_10,1_ - 1 t_10,2_ + 1 t_10,4_ + 2 t_10,5_ - 1 x_10_ = 0
Bounds
x_1_ <= 2
x_2_ <= 2
x_3_ <= 2
x_4_ <= 2
x_5_ <= 2
x_6_ <= 2
x_7_ <= 2
x_8_ <= 2
x_9_ <= 2
x_10_ <= 2
t_1,1_ >= 0
t_2,1_ >= 0
t_3,1_ >= 0
t_4,1_ >= 0
t_5,1_ >= 0
t_6,1_ >= 0
t_7,1_ >= 0
t_8,1_ >= 0
t_9,1_ >= 0
t_10,1_ >= 0
t_1,2_ >= 0
t_2,2_ >= 0
t_3,2_ >= 0
t_4,2_ >= 0
t_5,2_ >= 0
t_6,2_ >= 0
t_7,2_ >= 0
t_8,2_ >= 0
t_9,2_ >= 0
t_10,2_ >= 0
t_1,3_ >= 0
t_2,3_ >= 0
t_3,3_ >= 0
t_4,3_ >= 0
t_5,3_ >= 0
t_6,3_ >= 0
t_7,3_ >= 0
t_8,3_ >= 0
t_9,3_ >= 0
t_10,3_ >= 0
t_1,4_ >= 0
t_2,4_ >= 0
t_3,4_ >= 0
t_4,4_ >= 0
t_5,4_ >= 0
t_6,4_ >= 0
t_7,4_ >= 0
t_8,4_ >= 0
t_9,4_ >= 0
t_10,4_ >= 0
t_1,5_ >= 0
t_2,5_ >= 0
t_3,5_ >= 0
t_4,5_ >= 0
t_5,5_ >= 0
t_6,5_ >= 0
t_7,5_ >= 0
t_8,5_ >= 0
t_9,5_ >= 0
t_10,5_ >= 0
x_1_ >= -2
x_2_ >= -2
x_3_ >= -2
x_4_ >= -2
x_5_ >= -2
x_6_ >= -2
x_7_ >= -2
x_8_ >= -2
x_9_ >= -2
x_10_ >= -2
Binary
y_1,1_
y_2,1_
y_3,1_
y_4,1_
y_5,1_
y_6,1_
y_7,1_
y_8,1_
y_9,1_
y_10,1_
y_1,2_
y_2,2_
y_3,2_
y_4,2_
y_5,2_
y_6,2_
y_7,2_
y_8,2_
y_9,2_
y_10,2_
y_1,3_
y_2,3_
y_3,3_
y_4,3_
y_5,3_
y_6,3_
y_7,3_
y_8,3_
y_9,3_
y_10,3_
y_1,4_
y_2,4_
y_3,4_
y_4,4_
y_5,4_
y_6,4_
y_7,4_
y_8,4_
y_9,4_
y_10,4_
End
