res_glpk/10_4.log
GLPSOL--GLPK LP/MIP Solver 5.0
Parameter(s) specified in the command line:
 --lp ../modeles/10_4.lp --log 10_4.log
Reading problem data from '../modeles/10_4.lp'...
81 rows, 100 columns, 310 non-zeros
40 integer variables, all of which are binary
197 lines were read
GLPK Integer Optimizer 5.0
81 rows, 100 columns, 310 non-zeros
40 integer variables, all of which are binary
Preprocessing...
20 constraint coefficient(s) were reduced
71 rows, 90 columns, 260 non-zeros
40 integer variables, all of which are binary
Scaling...
 A: min|aij| =  2.500e-01  max|aij| =  4.000e+00  ratio =  1.600e+01
Problem data seem to be well scaled
Constructing initial basis...
Size of triangular part is 71
Solving LP relaxation...
GLPK Simplex Optimizer 5.0
71 rows, 90 columns, 260 non-zeros
      0: obj =   2.000000000e+01 inf =   5.400e+01 (21)
     58: obj =  -1.000000000e+00 inf =   0.000e+00 (0)
OPTIMAL LP SOLUTION FOUND
Integer optimization begins...
Long-step dual simplex will be used
+    58: mip =     not found yet >=              -inf        (1; 0)
+    62: >>>>>  -1.000000000e+00 >=  -1.000000000e+00   0.0% (4; 0)
+    62: mip =  -1.000000000e+00 >=     tree is empty   0.0% (0; 7)
INTEGER OPTIMAL SOLUTION FOUND
Time used:   0.0 secs
Memory used: 0.2 Mb (200298 bytes)
